NAME : pairopt
TYPE : ACVRP
DIMENSION : 6
EDGE_WEIGHT_TYPE : EXPLICIT
EDGE_WEIGHT_FORMAT : FULL_MATRIX
CAPACITY : 11250
VEHICLES : 2
EDGE_WEIGHT_SECTION
100000 -100000 -100000 100000 100000 100000 
100000 100000 1000000 51306 51174 61 
100000 1000000 100000 674 442 50728 
0 51306 674 100000 250 102500 
0 51174 442 250 100000 102236 
0 61 50728 102500 102236 100000 
DEMAND_SECTION
1 0
2 0
3 0
4 5000
5 5000
6 5000
DEPOT_SECTION
1
EOF